p cnf 8 15
2 4 -6 3 -1 5 -8 -7 0
-2 1 8 -7 -4 6 3 0
1 -2 -4 7 8 -3 0
-8 5 4 2 1 3 -6 7 0
8 -2 3 7 0
3 -1 2 0
2 -1 -5 -6 -7 0
5 2 3 0
-3 -5 4 0
-3 -8 0
-5 -6 -8 -4 2 1 0
5 8 7 -1 3 6 -2 4 0
2 3 -6 8 1 -7 -4 0
-7 -8 -1 5 -4 6 3 2 0
6 -4 0
